118 104
5 6
2 48
1 62
1 8
11 7
21 21
10 3
34 24
2 26
19 31
1 9
3 6
41 34
77 36
57 136
19 174
3 1
52 39
133 26
49 1
158 4
95 1
129 29
3 27
3 24
7 211
116 10
4 27
65 283
22 157
1 251
2 84
16 13
30 25
2 15
111 11
1 31
7 212
26 6
48 20
51 214
21 87
3 5
4 9
37 66
13 6
116 30
88 2
5 20
2 14
5 18
201 7
117 30
23 29
86 67
44 104
10 6
77 48
1 8
88 7
9 21
51 3
19 24
11 26
142 31
12 6
17 34
141 36
49 136
10 174
35 39
81 26
27 1
53 4
36 1
9 29
2 27
2 24
194 211
1 10
19 27
21 283
140 157
14 13
23 25
11 15
50 11
8 212
32 6
170 20
55 214
8 87
83 9
177 66
63 6
95 30
43 2
133 20
3 14
